benchmark_str_length/p2_10_7-0.dzn
Alphabet = {A,C,G,T};
ns = 10;
nc = 7;
sl = 7;
neighbours = [| I(A),I(G),I(A),I(T),I(C),Null,Null | I(A),I(G),I(A),Null,Null,Null,Null | I(G),Null,Null,Null,Null,Null,Null | I(A),I(C),I(T),I(C),Null,Null,Null | I(G),Null,Null,Null,Null,Null,Null | I(A),I(C),I(C),I(A),I(A),I(C),I(G) | Null,Null,Null,Null,Null,Null,Null | I(A),I(A),I(G),I(A),I(C),Null,Null | I(T),I(A),Null,Null,Null,Null,Null | I(C),I(T),I(A),I(A),Null,Null,Null |];
